problems/GracefulGears/GracefulGears-models/noch/O2/lingeling/model-n10-solution000001.eprime-solution
language ESSENCE' 1.0

letting colour_Function1D be [13, 7, 29, 5, 30, 20, 8, 3, 19, 10, 28, 2, 23, 12, 27, 24, 4, 21, 14, 15, 0; int(0..20)]
letting edgeID_Function1D be
        [6, 22, 24, 25, 10, 12, 5, 16, 9, 18, 26, 21, 11, 15, 3, 20, 17, 7, 1, 2, 13, 29, 30, 8, 19, 28, 23, 27, 4,
         14; int(0..29)]
